StudentsNr = 10;
InstructorsNr = 76;
DaysNr = 1;
SlotsPerDay = 60;
AvailabilitySlotsLenght = 6;
RoomNr = 1;
ProgrammNr = 2;
DegreeNr = 2;
RolesNr = 2;
CoursesNr = 10;
InstructorsProgramm = [{1, 2}, {2}, {2}, {1}, {2}, {2}, {2}, {2}, {2}, {1, 2}, {2}, {1}, {1}, {2}, {2}, {1}, {2}, {1}, {1}, {1}, {1, 2}, {1}, {1}, {2}, {2}, {1}, {2}, {2}, {1}, {1}, {1}, {2}, {1, 2}, {1, 2}, {1}, {1}, {2}, {2}, {1, 2}, {1}, {1, 2}, {1, 2}, {2}, {1}, {1, 2}, {1}, {1}, {1}, {1, 2}, {2}, {2}, {1}, {2}, {1, 2}, {2}, {1, 2}, {1, 2}, {2}, {1}, {1}, {2}, {1, 2}, {1}, {2}, {1}, {1, 2}, {1, 2}, {1, 2}, {1}, {2}, {1}, {1, 2}, {1}, {1, 2}, {1}, {1}];
InstructorRolesPerProgramm = [|{4, 13, 16, 18, 20, 21, 23, 33, 34, 35, 39, 49, 56, 57, 59, 67, 71, 72, 75, 76}, {1, 4, 12, 13, 18, 19, 21, 22, 30, 33, 36, 42, 46, 48, 52, 56, 62, 66, 72, 73, 75, 76}|{3, 7, 8, 15, 21, 25, 28, 32, 33, 34, 39, 49, 53, 56, 57, 58, 64, 67, 72}, {1, 2, 7, 15, 21, 25, 32, 33, 38, 42, 43, 50, 56, 62, 64, 66, 72}|];
InstructorsAvailability = [|0, 1, 0, 1, 1, 1, 1, 1, 1, 1, |1, 1, 1, 1, 1, 1, 1, 1, 1, 1, |1, 1, 1, 0, 1, 1, 1, 1, 1, 1, |1, 1, 1, 1, 1, 1, 1, 1, 1, 1, |1, 1, 1, 1, 0, 0, 0, 1, 1, 1, |0, 1, 1, 1, 1, 1, 0, 0, 0, 0, |1, 1, 1, 1, 1, 1, 1, 1, 1, 1, |1, 1, 0, 1, 1, 1, 1, 1, 1, 1, |0, 1, 1, 1, 1, 1, 1, 1, 1, 1, |0, 0, 0, 0, 1, 1, 1, 1, 1, 1, |0, 1, 1, 1, 1, 1, 1, 1, 0, 0, |1, 0, 0, 0, 1, 1, 1, 1, 1, 1, |1, 1, 1, 1, 1, 1, 1, 1, 1, 1, |0, 1, 1, 1, 1, 1, 1, 1, 1, 1, |1, 1, 1, 1, 1, 1, 1, 1, 1, 0, |1, 1, 1, 1, 1, 1, 1, 1, 1, 1, |1, 1, 1, 0, 1, 0, 0, 1, 1, 1, |1, 1, 1, 0, 0, 1, 1, 1, 1, 0, |1, 1, 1, 1, 1, 1, 1, 1, 0, 1, |1, 1, 1, 1, 1, 1, 0, 1, 1, 0, |1, 1, 1, 1, 1, 1, 0, 1, 1, 0, |1, 0, 1, 1, 1, 1, 1, 1, 1, 1, |1, 1, 1, 1, 0, 1, 1, 1, 0, 0, |1, 1, 1, 1, 1, 1, 1, 1, 0, 1, |1, 1, 0, 0, 1, 1, 0, 1, 1, 1, |1, 1, 1, 1, 0, 1, 1, 0, 1, 1, |0, 0, 1, 0, 1, 1, 1, 1, 0, 0, |1, 1, 1, 0, 0, 0, 1, 1, 1, 1, |0, 1, 1, 1, 1, 0, 1, 1, 1, 0, |0, 1, 1, 1, 1, 0, 0, 0, 1, 0, |1, 1, 1, 0, 1, 1, 1, 1, 0, 1, |0, 1, 1, 1, 1, 0, 1, 1, 1, 1, |1, 1, 1, 1, 1, 1, 1, 1, 1, 1, |1, 1, 1, 1, 1, 0, 1, 1, 1, 1, |0, 0, 1, 1, 1, 1, 1, 1, 1, 1, |0, 0, 0, 1, 1, 1, 1, 1, 1, 1, |0, 1, 1, 1, 1, 1, 1, 1, 1, 1, |1, 1, 1, 1, 1, 0, 1, 1, 1, 1, |1, 1, 1, 1, 1, 1, 1, 1, 1, 1, |1, 1, 1, 1, 1, 0, 0, 1, 1, 1, |1, 1, 1, 0, 0, 0, 1, 1, 1, 1, |1, 1, 1, 1, 1, 1, 1, 1, 1, 1, |1, 1, 1, 1, 1, 1, 1, 1, 1, 1, |1, 1, 1, 1, 1, 1, 1, 0, 0, 1, |0, 1, 1, 1, 1, 1, 1, 0, 0, 1, |1, 1, 1, 1, 0, 1, 1, 0, 0, 1, |1, 1, 1, 1, 1, 0, 0, 1, 1, 1, |0, 0, 1, 1, 1, 0, 1, 1, 1, 1, |1, 1, 1, 0, 1, 1, 0, 1, 1, 1, |0, 1, 1, 1, 1, 1, 1, 1, 1, 1, |0, 0, 1, 1, 1, 1, 1, 1, 1, 1, |0, 1, 0, 1, 1, 1, 0, 0, 1, 1, |1, 1, 1, 1, 1, 1, 1, 1, 1, 0, |1, 1, 0, 0, 1, 1, 1, 1, 1, 1, |0, 0, 1, 1, 0, 1, 1, 1, 0, 0, |0, 0, 1, 1, 0, 1, 1, 1, 1, 1, |1, 1, 1, 1, 1, 1, 1, 1, 1, 0, |0, 1, 1, 1, 1, 1, 1, 1, 1, 1, |0, 1, 1, 1, 1, 1, 1, 1, 1, 1, |0, 1, 1, 1, 1, 1, 1, 1, 1, 1, |0, 1, 1, 1, 1, 1, 1, 1, 1, 1, |1, 0, 0, 0, 0, 1, 1, 0, 1, 1, |1, 1, 0, 1, 1, 1, 1, 1, 1, 1, |1, 1, 1, 1, 1, 1, 1, 1, 1, 1, |1, 1, 1, 1, 1, 0, 1, 1, 0, 0, |1, 1, 1, 1, 0, 1, 1, 1, 1, 1, |0, 1, 1, 1, 1, 1, 0, 1, 1, 1, |1, 0, 0, 1, 1, 1, 1, 1, 1, 1, |0, 0, 1, 1, 1, 1, 1, 1, 1, 1, |1, 1, 1, 1, 0, 1, 0, 1, 0, 1, |1, 1, 1, 1, 1, 0, 0, 0, 1, 1, |0, 0, 1, 0, 0, 0, 0, 1, 1, 1, |0, 1, 1, 1, 1, 0, 0, 1, 1, 1, |1, 0, 1, 1, 1, 0, 1, 1, 1, 1, |1, 1, 0, 0, 1, 1, 0, 0, 0, 1, |0, 0, 1, 1, 1, 1, 1, 0, 0, 1|];
StudentsProgramm = [1, 2, 1, 2, 1, 2, 1, 2, 1, 1];
StudentsDegree = [1, 1, 2, 1, 1, 1, 1, 1, 2, 2];
StudentsSupervisorId = [49, 66, 73, 6, 68, 15, 66, 55, 74, 47];
StudentsCourseIds = [{1, 3, 5, 6, 7, 8, 9, 10}, {1, 3, 4, 5, 6, 8, 9, 10}, {3, 6}, {1, 2, 3, 4, 6, 7, 8, 9}, {1, 2, 3, 4, 6, 7, 8, 10}, {1, 2, 3, 4, 7, 8, 9, 10}, {2, 3, 4, 5, 7, 8, 9, 10}, {1, 2, 4, 5, 6, 8, 9, 10}, {3, 7}, {2, 4}];
StudentsAvailability = [|1, 1, 1, 1, 1, 1, 1, 1, 1, 0, |1, 0, 1, 1, 1, 1, 0, 1, 1, 1, |0, 0, 1, 1, 1, 1, 1, 1, 1, 1, |1, 1, 1, 1, 1, 1, 1, 1, 1, 1, |1, 1, 1, 1, 1, 1, 1, 0, 1, 0, |1, 1, 1, 1, 1, 1, 1, 1, 1, 1, |1, 1, 1, 1, 1, 0, 1, 1, 1, 1, |1, 0, 0, 1, 1, 1, 1, 1, 1, 1, |0, 0, 0, 1, 1, 1, 1, 1, 1, 1, |0, 1, 1, 1, 1, 1, 1, 1, 1, 1|];
TheoryticalMinCard = [1, 1, 0, 1, 1, 1, 1, 1, 0, 0];
CoursesInstructorIds = [{30, 34, 38, 51, 57, 61, 68, 69}, {6, 8, 15, 19, 21, 26, 27, 28, 30, 31, 34, 35, 41, 47, 48, 49, 54, 56, 58, 61, 66, 67, 72, 75, 76}, {6, 7, 8, 11, 20, 21, 22, 23, 30, 31, 32, 34, 37, 38, 39, 41, 43, 45, 46, 50, 52, 54, 56, 57, 59, 61, 62, 65, 68, 71, 73, 74, 75}, {5, 13, 26, 50, 51, 65, 67, 69}, {5, 6, 10, 11, 12, 15, 16, 18, 21, 23, 24, 26, 30, 32, 37, 39, 41, 43, 44, 49, 50, 51, 52, 58, 60, 67, 68, 69, 71}, {1, 4, 7, 9, 11, 15, 16, 20, 21, 23, 24, 25, 26, 27, 28, 30, 31, 32, 35, 37, 38, 39, 40, 41, 42, 44, 45, 46, 48, 51, 53, 54, 56, 59, 60, 63, 64, 65, 66, 67, 68, 70, 71, 73, 74, 76}, {1, 2, 3, 6, 7, 8, 9, 13, 14, 15, 17, 20, 21, 23, 24, 25, 26, 28, 29, 30, 32, 33, 34, 36, 37, 38, 39, 40, 41, 42, 43, 46, 47, 50, 53, 54, 55, 56, 57, 58, 59, 61, 62, 64, 65, 66, 67, 68, 72, 74, 76}, {70, 74}, {6, 7, 9, 18, 19, 20, 22, 25, 33, 35, 44, 45, 48, 51, 65, 67, 69, 71, 74, 75, 76}, {1, 3, 8, 10, 13, 18, 20, 24, 32, 35, 37, 39, 42, 48, 49, 51, 53, 54, 55, 56, 58, 59, 63, 71, 72}];
RolesDemands = [16, 6];
RolesContinuity = [1];
ExamLen = [2, 2, 2, 2, 2, 2, 2, 2, 2, 2];
LunchTsMinLen = 0;
LunchStarts = [24..32];
SupervisorAvailable = 5;
OptimalLunchLenght = [2, 3];
OptimalStartTs = [0, 0];
OptimalFinishTs = [1, 59];
MinimizeRooms = 400;
RolesSoftContinuity = [|1, 2|1, 4|];
SameDegreeInRoom = 0;
Mergeability = 0;
